/* Objective function */
min: - 0.0054fpdi - 0.0054fpdo + 0.05apdi + 0.05apdo + 0.0002pi + 0.0002po - 0.5fsi - 0.5fso;

apdi = 0.0 hi + 0.0 li + 12.32163 ri + -0.05397 ci + -1.86524 si + 0.0 ti + 0.11184 fTempIi + 0.02312 ami + -148.98194;
asi = 0.0 hi + 0.0 li + -0.00013 ri + -0.00054 ci + -5e-05 si + 0.0 ti + -0.00023 fTempIi + 0.00023 ami + 0.00133;
aTempOi = 0.0 hi + 0.0 li + 0.26418 ri + -0.11505 ci + -0.056 si + 0.0 ti + 0.79209 fTempIi + -0.0007 ami + 6.75721;
fpdi = 0.0 hi + 0.0 li + 68.91216 ri + -511.88651 ci + -0.15139 si + 0.0 ti + -3.45318 fTempIi + 0.00189 ami + 1846.69893;
fsi = 0.0 hi + 0.0 li + -0.00018 ri + -0.57511 ci + 4e-05 si + 0.0 ti + 0.00112 fTempIi + -0.0 ami + 4.0069;
fTempOi = 0.0 hi + -0.0 li + -0.26226 ri + 0.11968 ci + 0.05586 si + -0.0 ti + 0.22536 fTempIi + -0.00065 ami + 10.19775;
pi = 0.0 hi + 0.0 li + 116.25833 ri + 3.46667 ci + -8.14143 si + -0.0 ti + -0.0 fTempIi + -0.0 ami + 296.1619;

apdo = 0.0 ho + 0.0 lo + 12.48294 ro + 0.02476 co + -1.87837 so + -0.0 to + 0.11955 fTempIo + 0.02375 amo + -152.64721;
aso = 0.0 ho + -0.0 lo + 0.0 ro + 0.0 co + 0.0 so + 0.0 to + -0.0 fTempIo + 0.00023 amo + -0.01;
aTempOo = 0.0 ho + 0.0 lo + -0.31313 ro + 0.16416 co + 0.05212 so + -0.0 to + 0.73725 fTempIo + 0.00074 amo + -0.17255;
fpdo = 0.0 ho + 0.0 lo + 10.04563 ro + -36.6715 co + 0.02339 so + -0.0 to + -0.57018 fTempIo + -0.00032 amo + 287.07962;
fso = 0.0 ho + 0.0 lo + 3e-05 ro + -0.13484 co + -1e-05 so + -0.0 to + 7e-05 fTempIo + 0.0 amo + 1.98337;
fTempOo = 0.0 ho + 0.0 lo + 0.31061 ro + -0.16532 co + -0.05189 so + -0.0 to + 0.27009 fTempIo + 0.00065 amo + 12.42006;
po = 0.0 ho + 0.0 lo + 123.90556 ro + 4.14667 co + -11.27524 so + 0.0 to + 0.0 fTempIo + 0.0 amo + 405.94921;

/* Variable bounds */
aTempOi > 18.6;
1 =r6i + r8i + r10i + r12i + r14i;
ri =6r6i + 8r8i + 10r10i + 12r12i + 14r14i;
1 =s25i + s30i + s40i;
si =25s25i + 30s30i + 40s40i;
ti = 2;
apdi > 100;
apdi < 300;
asi > 0;
asi < 3;
aTempOi > 5;
aTempOi < 25;
fpdi > 100;
fpdi < 300;
fsi > 0;
fsi < 1.25;
fTempOi > 5;
fTempOi < 25;
pi > 0;
ri > 6;
ri < 14;
ci > 1;
ci < 5;
si > 25;
si < 60;
ti > 1;
ti < 3;
fTempIi > 5;
fTempIi < 25;

/* aTempOo < 11.4; */
1 =r6o + r8o + r10o + r12o + r14o;
ro =6r6o + 8r8o + 10r10o + 12r12o + 14r14o;
1 =s25o + s30o + s40o;
so =25s25o + 30s30o + 40s40o;
to = 1;
apdo > 100;
apdo < 300;
aso > 0;
aso < 3;
aTempOo > 5;
aTempOo < 25;
fpdo > 100;
fpdo < 300;
fso > 0;
fso < 1.25;
fTempOo > 5;
fTempOo < 25;
po > 0;
ro > 6;
ro < 14;
co > 5;
co < 60;
so > 25;
so < 60;
to > 1;
to < 3;
fTempIo > 5;
fTempIo < 25;
int hi,li,si,ti,ci,ri,ami;
int ho,lo,so,to,co,ro,amo;
bin s25i,s30i,s40i,s50i,s60i,r6i,r8i,r10i,r12i,r14i;
bin s25o,s30o,s40o,s50o,s60o,r6o,r8o,r10o,r12o,r14o;
